Version identifier: 22.1.1.0 | 2022-11-28 | 9160aff4d
CPXPARAM_ClockType                               1
CPXPARAM_Read_DataCheck                          1
CPXPARAM_Threads                                 1
CPXPARAM_Simplex_Tolerances_Optimality           1.0000000000000001e-09
CPXPARAM_TimeLimit                               7200
CPXPARAM_MIP_Tolerances_AbsMIPGap                0
CPXPARAM_MIP_Tolerances_MIPGap                   0
CPXPARAM_MIP_Tolerances_Integrality              0
Tried aggregator 4 times.
MIQP Presolve eliminated 56159 rows and 844 columns.
Aggregator did 560 substitutions.
Reduced MIQP has 8285 rows, 1356 columns, and 22986 nonzeros.
Reduced MIQP has 1220 binaries, 136 generals, 0 SOSs, and 0 indicators.
Reduced MIQP objective Q matrix has 136 nonzeros.
Presolve time = 0.10 sec. (71.93 ticks)
Probing time = 0.01 sec. (3.49 ticks)
Tried aggregator 1 time.
MIQP Presolve eliminated 8 rows and 0 columns.
MIQP Presolve modified 8 coefficients.
Reduced MIQP has 8277 rows, 1356 columns, and 22966 nonzeros.
Reduced MIQP has 1220 binaries, 136 generals, 0 SOSs, and 0 indicators.
Reduced MIQP objective Q matrix has 136 nonzeros.
Presolve time = 0.02 sec. (14.72 ticks)
Classifier predicts products in MIQP should be linearized.
Probing time = 0.01 sec. (3.47 ticks)
Clique table members: 4677.
MIP emphasis: balance optimality and feasibility.
MIP search method: dynamic search.
Parallel mode: none, using 1 thread.
Root relaxation solution time = 5.54 sec. (10234.82 ticks)

        Nodes                                         Cuts/
   Node  Left     Objective  IInf  Best Integer    Best Bound    ItCnt     Gap

      0     0      850.0000   816                    850.0000       13         
*     0+    0                          388.0000      850.0000           119.07%
      0     0      850.0000   871      388.0000     Cuts: 112    38200  119.07%
      0     0      850.0000   864      388.0000    Cuts: 2169    96176  119.07%
      0     0      850.0000   896      388.0000    Cuts: 2169   145770  119.07%
*     0+    0                          408.0000      850.0000           108.33%
      0     0        cutoff            408.0000      850.0000   145770  108.33%
      0     0      850.0000   895      408.0000    Cuts: 2169   181718  108.33%
      0     0      850.0000   937      408.0000    Cuts: 2169   209021  108.33%
      0     0      850.0000   929      408.0000    Cuts: 2169   222514  108.33%
Heuristic still looking.
Heuristic still looking.
Heuristic still looking.
      0     2      850.0000   896      408.0000      850.0000   222514  108.33%
Elapsed time = 594.60 sec. (279658.33 ticks, tree = 0.01 MB, solutions = 2)
      1     3      850.0000   898      408.0000      850.0000   242049  108.33%
      2     4      850.0000   924      408.0000      850.0000   302672  108.33%
      3     5      850.0000   875      408.0000      850.0000   347787  108.33%
      4     6      850.0000   925      408.0000      850.0000   448776  108.33%
      5     7      850.0000   916      408.0000      850.0000   557039  108.33%
      6     8      850.0000   915      408.0000      850.0000   698443  108.33%
      7     7    infeasible            408.0000      850.0000   711542  108.33%
      8     6    infeasible            408.0000      850.0000   727187  108.33%
      9     7      850.0000   896      408.0000      850.0000   808355  108.33%
     10     6    infeasible            408.0000      850.0000   822480  108.33%
Elapsed time = 987.73 sec. (453309.01 ticks, tree = 0.02 MB, solutions = 2)
     11     7      850.0000   906      408.0000      850.0000   868078  108.33%
     12     8      841.0227  1019      408.0000      850.0000   899506  108.33%
     13     9   1.00000e+37   969      408.0000      850.0000   931728  108.33%
     17    13      836.0571   981      408.0000      850.0000   948067  108.33%
     18    14      838.0722   984      408.0000      850.0000   955156  108.33%
     19    15      837.9073   957      408.0000      850.0000   960556  108.33%
     21    17      835.3383   864      408.0000      850.0000   968999  108.33%
     26    22      829.9934   894      408.0000      850.0000   975778  108.33%
*    30+   24                          752.0000      850.0000            13.03%
     30    26      830.6952   845      752.0000      850.0000   979978   13.03%
     32    28      823.0193   852      752.0000      850.0000   989829   13.03%
Elapsed time = 1153.09 sec. (524397.54 ticks, tree = 0.05 MB, solutions = 3)
*    40+   34                          780.0000      850.0000             8.97%
*    40+   34                          802.0000      850.0000             5.99%
     40    36      819.0617   721      802.0000      850.0000   993850    5.99%
     50    44      809.0243   459      802.0000      850.0000   997742    5.99%
     57    43      850.0000   963      802.0000      850.0000  1092811    5.99%
     58    44      850.0000   938      802.0000      850.0000  1144898    5.99%
     59    45      850.0000   945      802.0000      850.0000  1181182    5.99%
     60    46      850.0000   941      802.0000      850.0000  1246273    5.99%
     61    47      850.0000   949      802.0000      850.0000  1324189    5.99%
     62    48      850.0000   952      802.0000      850.0000  1350761    5.99%
     63    49      850.0000   935      802.0000      850.0000  1409319    5.99%
     64    50      850.0000   966      802.0000      850.0000  1482354    5.99%
Elapsed time = 1595.14 sec. (717506.82 ticks, tree = 0.10 MB, solutions = 5)
     65    51      850.0000  1006      802.0000      850.0000  1526613    5.99%
     66    52      850.0000   949      802.0000      850.0000  1580126    5.99%
     67    53      850.0000   973      802.0000      850.0000  1604966    5.99%
     68    54      850.0000   953      802.0000      850.0000  1638363    5.99%
     69    55      850.0000   949      802.0000      850.0000  1664134    5.99%
     71    55      850.0000   967      802.0000      850.0000  1728327    5.99%
     72    56      850.0000   983      802.0000      850.0000  1813512    5.99%
     74    56      850.0000   940      802.0000      850.0000  1848280    5.99%
     76    56      850.0000   927      802.0000      850.0000  1899573    5.99%
     77    57      850.0000   935      802.0000      850.0000  1919820    5.99%
Elapsed time = 1907.17 sec. (849588.49 ticks, tree = 0.11 MB, solutions = 5)
     78    58      850.0000   940      802.0000      850.0000  1979901    5.99%
     80    58      850.0000   913      802.0000      850.0000  2040351    5.99%
     81    59      850.0000   942      802.0000      850.0000  2091246    5.99%
     82    60      850.0000   953      802.0000      850.0000  2118152    5.99%
     83    61      850.0000   903      802.0000      850.0000  2154563    5.99%
     84    62      850.0000   938      802.0000      850.0000  2195074    5.99%
     86    62      850.0000   971      802.0000      850.0000  2284898    5.99%
     89    61      850.0000   976      802.0000      850.0000  2406868    5.99%
     90    62      850.0000   941      802.0000      850.0000  2471508    5.99%
     92    62      850.0000   913      802.0000      850.0000  2525310    5.99%
Elapsed time = 2537.03 sec. (1113863.08 ticks, tree = 0.12 MB, solutions = 5)
     93    63      850.0000   896      802.0000      850.0000  2647251    5.99%
     95    63      850.0000   962      802.0000      850.0000  2707618    5.99%
     97    63      850.0000   947      802.0000      850.0000  2747899    5.99%
     98    64      850.0000   942      802.0000      850.0000  2795248    5.99%
     99    65      850.0000   945      802.0000      850.0000  2857312    5.99%
    101    65      850.0000   890      802.0000      850.0000  2895976    5.99%
    102    66      850.0000   917      802.0000      850.0000  2924883    5.99%
    103    67      850.0000   893      802.0000      850.0000  2981682    5.99%
    104    68      850.0000   902      802.0000      850.0000  3026666    5.99%
    106    66    infeasible            802.0000      850.0000  3042257    5.99%
Elapsed time = 2873.58 sec. (1262836.77 ticks, tree = 0.13 MB, solutions = 5)
    107    67      850.0000   922      802.0000      850.0000  3129279    5.99%
    108    68      850.0000   941      802.0000      850.0000  3164216    5.99%
    109    69      850.0000   912      802.0000      850.0000  3209180    5.99%
    110    70      850.0000   929      802.0000      850.0000  3254958    5.99%
    111    71      850.0000   921      802.0000      850.0000  3309778    5.99%
    112    72      850.0000   930      802.0000      850.0000  3397210    5.99%
    113    71        cutoff            802.0000      850.0000  3448226    5.99%
    114    70    infeasible            802.0000      850.0000  3459887    5.99%
    115    71      811.4602   571      802.0000      850.0000  3497408    5.99%
    129    81      850.0000   915      802.0000      850.0000  3648333    5.99%
Elapsed time = 3400.73 sec. (1504440.59 ticks, tree = 0.16 MB, solutions = 5)
    130    82      850.0000   878      802.0000      850.0000  3741728    5.99%
    131    83      850.0000   934      802.0000      850.0000  3758078    5.99%
    132    84      850.0000   898      802.0000      850.0000  3778694    5.99%
    133    85      850.0000   942      802.0000      850.0000  3802061    5.99%
    135    83        cutoff            802.0000      850.0000  3834674    5.99%
    137    83      850.0000   981      802.0000      850.0000  3929170    5.99%
    138    84      850.0000   937      802.0000      850.0000  3985123    5.99%
    139    85      850.0000   951      802.0000      850.0000  4063092    5.99%
    140    86      850.0000   961      802.0000      850.0000  4106436    5.99%
    141    87      850.0000   975      802.0000      850.0000  4161184    5.99%
Elapsed time = 4052.99 sec. (1796603.60 ticks, tree = 0.17 MB, solutions = 5)
    143    87      850.0000   944      802.0000      850.0000  4217575    5.99%
    144    88      850.0000   938      802.0000      850.0000  4249650    5.99%
    146    88      850.0000   910      802.0000      850.0000  4271126    5.99%
    147    89      850.0000   949      802.0000      850.0000  4328757    5.99%
    148    90      850.0000   948      802.0000      850.0000  4370036    5.99%
    150    88    infeasible            802.0000      850.0000  4381694    5.99%
    151    87    infeasible            802.0000      850.0000  4398352    5.99%
    152    88      850.0000   946      802.0000      850.0000  4470122    5.99%
    153    89      850.0000   951      802.0000      850.0000  4568843    5.99%
    154    90      808.0665   640      802.0000      850.0000  4585061    5.99%
Elapsed time = 4443.28 sec. (1979562.36 ticks, tree = 0.18 MB, solutions = 5)
    162    94      817.9589   597      802.0000      850.0000  4607606    5.99%
    185   117      805.3245   375      802.0000      850.0000  4611480    5.99%
    195   119    infeasible            802.0000      850.0000  4626962    5.99%
    196   118    infeasible            802.0000      850.0000  4645276    5.99%
    197   119   1.00000e+37   574      802.0000      850.0000  4654795    5.99%
    217   126        cutoff            802.0000      850.0000  4676633    5.99%
    218   125        cutoff            802.0000      850.0000  4693268    5.99%
    219   126      850.0000   947      802.0000      850.0000  4785163    5.99%
    220   127      813.0311   572      802.0000      850.0000  4804535    5.99%
    237   136    infeasible            802.0000      850.0000  4814259    5.99%
Elapsed time = 4676.88 sec. (2094815.63 ticks, tree = 0.27 MB, solutions = 5)
    238   137      815.4687   600      802.0000      850.0000  4828831    5.99%
    261   154    infeasible            802.0000      850.0000  4845516    5.99%
    262   155      810.2309   609      802.0000      850.0000  4862833    5.99%
    276   165      850.0000  1006      802.0000      850.0000  4963464    5.99%
    277   166      850.0000  1025      802.0000      850.0000  5010450    5.99%
    278   167      850.0000  1032      802.0000      850.0000  5067564    5.99%
    279   168      850.0000  1025      802.0000      850.0000  5112855    5.99%
    280   169      850.0000  1016      802.0000      850.0000  5183362    5.99%
    281   170      850.0000  1023      802.0000      850.0000  5277973    5.99%
    282   171      850.0000   998      802.0000      850.0000  5379544    5.99%
Elapsed time = 5230.56 sec. (2399024.85 ticks, tree = 0.33 MB, solutions = 5)
    283   172      850.0000   998      802.0000      850.0000  5414751    5.99%
    284   173      850.0000  1010      802.0000      850.0000  5441252    5.99%
    286   173      850.0000  1029      802.0000      850.0000  5471896    5.99%
    287   174      850.0000   998      802.0000      850.0000  5510806    5.99%
    289   174      850.0000  1017      802.0000      850.0000  5567601    5.99%
    291   174      850.0000   997      802.0000      850.0000  5607483    5.99%
    293   174      850.0000  1009      802.0000      850.0000  5628658    5.99%
    295   174      850.0000  1018      802.0000      850.0000  5688554    5.99%
    296   175      850.0000   996      802.0000      850.0000  5734772    5.99%
    298   175      850.0000  1027      802.0000      850.0000  5768225    5.99%
Elapsed time = 5469.86 sec. (2556068.19 ticks, tree = 0.34 MB, solutions = 5)
    299   176      850.0000   988      802.0000      850.0000  5808598    5.99%
    300   177      850.0000   962      802.0000      850.0000  5828469    5.99%
    301   178      850.0000  1000      802.0000      850.0000  5867898    5.99%
    302   179      850.0000   973      802.0000      850.0000  5903056    5.99%
    303   180      850.0000  1004      802.0000      850.0000  5924513    5.99%
    304   179        cutoff            802.0000      850.0000  5934043    5.99%
    305   180      850.0000   977      802.0000      850.0000  5985917    5.99%
    306   181      850.0000   993      802.0000      850.0000  6003051    5.99%
    307   182      850.0000   954      802.0000      850.0000  6038295    5.99%
    308   183      850.0000   970      802.0000      850.0000  6057608    5.99%
Elapsed time = 5714.12 sec. (2696490.26 ticks, tree = 0.36 MB, solutions = 5)
    309   184      850.0000   972      802.0000      850.0000  6095637    5.99%
    310   185      850.0000   968      802.0000      850.0000  6130735    5.99%
    311   186      850.0000   968      802.0000      850.0000  6169795    5.99%
    312   187      850.0000   968      802.0000      850.0000  6218146    5.99%
    313   188      850.0000   998      802.0000      850.0000  6252234    5.99%
    314   189      850.0000   967      802.0000      850.0000  6300145    5.99%
    315   190      850.0000   976      802.0000      850.0000  6316435    5.99%
    316   191      850.0000   995      802.0000      850.0000  6353347    5.99%
    318   191      850.0000   973      802.0000      850.0000  6408218    5.99%
    319   192      850.0000   976      802.0000      850.0000  6447025    5.99%
Elapsed time = 6027.24 sec. (2856946.69 ticks, tree = 0.38 MB, solutions = 5)
    320   193      850.0000   985      802.0000      850.0000  6475857    5.99%
    321   194      850.0000   958      802.0000      850.0000  6516402    5.99%
    322   193    infeasible            802.0000      850.0000  6523827    5.99%
    323   194      850.0000   970      802.0000      850.0000  6542304    5.99%
    324   195      850.0000   992      802.0000      850.0000  6598754    5.99%
    325   196      850.0000   972      802.0000      850.0000  6635057    5.99%
    326   197      850.0000   975      802.0000      850.0000  6675922    5.99%
    327   198      850.0000   987      802.0000      850.0000  6717263    5.99%
    329   198      850.0000   978      802.0000      850.0000  6755695    5.99%
    331   198      850.0000   946      802.0000      850.0000  6773097    5.99%
Elapsed time = 6363.77 sec. (3018184.41 ticks, tree = 0.39 MB, solutions = 5)
    332   199      850.0000   948      802.0000      850.0000  6814496    5.99%
    333   198    infeasible            802.0000      850.0000  6841806    5.99%
    334   199      850.0000   974      802.0000      850.0000  6882397    5.99%
    335   200      850.0000   964      802.0000      850.0000  6902198    5.99%
    336   201      850.0000   958      802.0000      850.0000  6922218    5.99%
    337   202   1.00000e+37   686      802.0000      850.0000  6932454    5.99%
    339   200        cutoff            802.0000      850.0000  6956508    5.99%
    340   201      850.0000  1004      802.0000      850.0000  7018068    5.99%
    341   202      850.0000   975      802.0000      850.0000  7076505    5.99%
    342   203      850.0000   992      802.0000      850.0000  7103582    5.99%
Elapsed time = 6711.95 sec. (3233074.74 ticks, tree = 0.40 MB, solutions = 5)
    343   204      850.0000   983      802.0000      850.0000  7138165    5.99%
    344   205      850.0000   976      802.0000      850.0000  7198385    5.99%
    345   206      850.0000   981      802.0000      850.0000  7254561    5.99%
    346   207      850.0000  1007      802.0000      850.0000  7289055    5.99%
    348   207      850.0000   988      802.0000      850.0000  7319565    5.99%
    349   206    infeasible            802.0000      850.0000  7327737    5.99%
    350   205    infeasible            802.0000      850.0000  7341041    5.99%
    351   204    infeasible            802.0000      850.0000  7362202    5.99%
    352   205      850.0000  1035      802.0000      850.0000  7455025    5.99%
    353   206      850.0000  1026      802.0000      850.0000  7489224    5.99%
Elapsed time = 7083.16 sec. (3455880.04 ticks, tree = 0.41 MB, solutions = 5)
    355   206      850.0000  1013      802.0000      850.0000  7526069    5.99%
    356   207      850.0000   997      802.0000      850.0000  7625745    5.99%

Clique cuts applied:  434
Implied bound cuts applied:  23
Flow cuts applied:  2
Zero-half cuts applied:  971
Gomory fractional cuts applied:  12

Root node processing (before b&c):
  Real time             =  594.59 sec. (279652.04 ticks)
Sequential b&c:
  Real time             = 6605.43 sec. (3250435.49 ticks)
                          ------------
Total (root+branch&cut) = 7200.02 sec. (3530087.53 ticks)
Solution is feasible.

---------------------
@@@ MIP_time_limit_feasible
>>> Benchmark mc2024_track1_185.cnf k 5 OPT 802 TimeCost 7231.548267126083 TimeSolve 7225.790422916412 TimeRead 0.03165459632873535 TimeTrans 5.726189613342285
